50, 200
300, 150
700, 100
400, 300
600, 500
150, 50
200, 450
350, 550
100, 350
750, 400
500, 250
250, 450
50, 100
700, 50
400, 500
600, 300
150, 500
200, 250
350, 150
100, 450
65, 391
20, 180
1, 500
253, 78
333, 444